27 6
10 13 10 9 9 10
1 0 0 0 0 0 0 3 2 3 4
10 1 3 10 0 2 4 1 6
6 10 0 7 5 0 0 3 6 7 8
7 2 6 0 0 0 0 3 5 6 7
3 0 0 8 3 0 0 3 9 10 11
5 0 8 4 0 4 2 3 10 11 12
5 0 2 0 0 0 7 2 10 11
7 0 4 10 3 0 9 1 11
7 5 5 1 4 9 0 2 14 15
6 0 6 8 0 0 5 2 13 16
4 5 6 0 0 0 3 4 13 14 15 16
10 8 0 0 4 7 0 4 13 14 15 16
4 10 9 2 6 0 7 4 17 18 19 20
4 0 5 0 0 0 3 3 17 18 20
9 10 9 4 5 0 3 3 17 18 20
1 5 0 1 0 0 0 2 17 20
1 3 7 7 4 0 2 1 24
3 0 4 6 0 3 3 2 22 24
9 0 9 10 0 0 2 2 23 24
2 0 0 1 0 0 0 1 21
8 2 2 0 0 3 10 1 25
6 2 0 0 0 8 0 2 25 26
3 0 4 0 0 0 8 1 25
7 3 0 0 0 0 0 1 25
3 0 3 0 9 5 0 1 27
6 0 9 2 9 2 0 1 27
0 0 0 0 0 0 0 0
